/*********************************************
 * OPL 12.6.2.0 Data
 * Author: Y
 * Creation Date: Mar 13, 2018 at 12:03:02 AM
 *********************************************/
m = 3;
n = 7;

P =[[2.5	0	1.3 ]
	[3	0	0.8]
	[0	0.3	0]
	[0	90	0]
	[0	96	4]
	[0	0.4	1.2]
	[0	0.6	0]
	];
	
PMIN = [2 0.4 1.2];
PMAX = [3 0.6 1.56];
 AVAIL = [400 300 600 500 200 300 250];
 COST = [200 250 150 220 240 200 165];
 DEM = 500;
 
 NAMES = ["iron 1" "iron 2" "iron 3" "copper 1" "copper 2" "aluminum 1" "aluminum 2"];